(set-logic QF_S)
(declare-fun _var_0xINPUT_167737_() String)
(declare-fun __woorpje_diseq_pref0_() String)
(declare-fun __woorpje_diseq_suf_l0_() String)
(declare-fun __woorpje_diseq_suf_r0_() String)
(assert (=(str.++ _var_0xINPUT_167737_  "")(str.++ __woorpje_diseq_pref0_  "Z" __woorpje_diseq_suf_l0_  "")) )
(assert (=(str.++  "exY8oZwPl5" "")(str.++ __woorpje_diseq_pref0_  "5" __woorpje_diseq_suf_r0_  "")) )
(check-sat)
